<number of tasks>
100

<cycle time>
1000

<order strength>
0.595


<task times>
1 552
2 646
3 709
4 411
5 629
6 396
7 676
8 414
9 521
10 509
11 659
12 384
13 464
14 620
15 491
16 616
17 393
18 402
19 378
20 219
21 488
22 447
23 580
24 573
25 334
26 367
27 454
28 692
29 197
30 413
31 529
32 266
33 672
34 361
35 529
36 390
37 341
38 359
39 496
40 558
41 365
42 225
43 272
44 486
45 478
46 297
47 507
48 477
49 589
50 572
51 573
52 511
53 418
54 378
55 387
56 433
57 595
58 541
59 311
60 462
61 512
62 421
63 343
64 537
65 352
66 356
67 374
68 431
69 305
70 556
71 577
72 451
73 512
74 530
75 607
76 594
77 602
78 673
79 726
80 332
81 405
82 579
83 391
84 480
85 658
86 270
87 510
88 552
89 687
90 538
91 318
92 532
93 555
94 432
95 595
96 438
97 530
98 624
99 505
100 613

<precedence relations>
1,4
1,5
1,7
1,10
1,12
2,42
2,43
2,44
3,6
3,7
4,8
5,100
6,9
6,10
6,11
6,12
6,13
7,41
8,14
9,35
9,36
9,37
10,15
10,16
10,17
11,15
11,16
11,17
12,15
12,16
12,17
13,15
13,16
13,17
14,21
15,18
15,19
15,20
15,22
15,23
15,24
16,22
16,23
16,24
17,22
17,23
17,24
18,25
19,27
20,28
21,26
22,29
22,30
22,31
23,29
23,30
23,31
24,29
24,30
24,31
25,32
26,33
27,35
28,34
29,35
29,36
29,37
30,35
30,36
31,35
31,36
31,41
32,38
33,39
34,41
35,57
35,63
36,40
36,42
36,43
36,44
37,41
37,44
38,46
39,45
40,49
41,47
41,51
42,48
42,51
42,57
43,55
44,50
44,51
45,52
46,55
47,53
48,54
49,55
50,56
50,57
51,56
51,58
51,63
52,62
53,59
54,63
55,60
55,61
55,62
55,63
55,64
56,62
56,75
57,62
58,64
59,65
60,69
61,70
62,66
62,67
62,71
62,84
63,76
64,68
64,77
65,75
66,72
67,73
68,74
69,75
70,75
71,76
71,77
72,80
73,79
74,80
75,82
75,83
75,84
75,85
76,78
76,82
76,95
77,81
77,85
77,89
78,88
79,89
81,86
81,90
82,87
82,97
83,89
83,90
85,100
86,91
87,92
88,93
89,94
89,95
89,96
90,97
91,98
92,99
93,99
96,100
97,100

<end>
